(set-info :status sat) ; swine result
(set-logic ALL)
(declare-fun i1 () Int)
(declare-fun it579 () Int)
(declare-fun it580 () Int)
(declare-fun it15 () Int)
(declare-fun it14 () Int)
(declare-fun it581 () Int)
(declare-fun it582 () Int)
(declare-fun it13 () Int)
(declare-fun bt633 () Bool)
(declare-fun bt634 () Bool)
(declare-fun bt635 () Bool)
(declare-fun bt636 () Bool)
(declare-fun it17 () Int)
(declare-fun it16 () Int)
(declare-fun it18 () Int)
(declare-fun bt25 () Bool)
(declare-fun bt28 () Bool)
(declare-fun bt26 () Bool)
(declare-fun bt27 () Bool)
(declare-fun it588 () Int)
(declare-fun it589 () Int)
(declare-fun it590 () Int)
(declare-fun it591 () Int)
(declare-fun bt637 () Bool)
(declare-fun bt638 () Bool)
(declare-fun bt639 () Bool)
(declare-fun bt640 () Bool)
(declare-fun it356 () Int)
(declare-fun it665 () Int)
(declare-fun it666 () Int)
(declare-fun it667 () Int)
(declare-fun it668 () Int)
(declare-fun bt709 () Bool)
(declare-fun bt710 () Bool)
(declare-fun bt711 () Bool)
(declare-fun bt712 () Bool)
(declare-fun bt643 () Bool)
(declare-fun it594 () Int)
(declare-fun bt642 () Bool)
(declare-fun bt641 () Bool)
(declare-fun it593 () Int)
(declare-fun bt644 () Bool)
(declare-fun it592 () Int)
(declare-fun it715 () Int)
(declare-fun it716 () Int)
(declare-fun it717 () Int)
(declare-fun it718 () Int)
(declare-fun bt753 () Bool)
(declare-fun bt754 () Bool)
(declare-fun bt755 () Bool)
(declare-fun bt756 () Bool)
(declare-fun bt760 () Bool)
(declare-fun bt759 () Bool)
(declare-fun bt757 () Bool)
(declare-fun it720 () Int)
(declare-fun bt758 () Bool)
(declare-fun it719 () Int)
(declare-fun it721 () Int)
(assert (= (+ i1 (- 1)) 0))
(assert (= (+ it579 (- 2)) 0))
(assert (= (+ (* it15 (- 1)) it580) 0))
(assert (= (+ it581 (* it14 (- 1))) 0))
(assert (= (+ (* it13 (- 1)) it582) 0))
(assert (or (and false bt633) (not bt633)))
(assert (or (and false (not bt634)) bt634))
(assert (or (and false bt635) (not bt635)))
(assert (or (and false bt636) (not bt636)))
(assert (and bt27
     (not bt26)
     (not bt28)
     (not bt25)
     (= (+ it18 (- 1)) 0)
     (= (+ it579 (- 2)) 0)
     (= (+ (* it16 (- 1)) it582) 0)
     (not bt633)
     (= (+ it581 (* it17 (- 1))) 0)
     bt634
     (not bt635)
     (not bt636)))
(assert (= (+ it588 (- 2)) 0))
(assert (= (+ (* it18 (- 1)) it589) 0))
(assert (= (+ it590 (* it17 (- 1))) 0))
(assert (= (+ (* it16 (- 1)) it591) 0))
(assert (or (and bt27 bt637) (and (not bt27) (not bt637))))
(assert (or (and bt28 bt638) (and (not bt28) (not bt638))))
(assert (or (and (not bt26) (not bt639)) (and bt26 bt639)))
(assert (or (and (not bt25) (not bt640)) (and bt25 bt640)))
(assert (let ((a!1 (+ (* (+ 0 it589) (exp 3 (+ it356 (- 1))) (+ 0 (- 1)))
              (+ 0 it591))))
  (and (> a!1 (+ 0 0))
       (> (+ (* it589 (- 1)) it591) 0)
       (>= (+ (* it588 (- 1)) 2) 0)
       bt637
       (not bt638)
       (>= (* it590 (- 1)) 0)
       (>= (+ it588 (- 2)) 0)
       (not bt640)
       (not bt639)
       (>= (+ it356 (- 1)) 0))))
(assert (= (+ (* it588 (- 1)) it665) 0))
(assert (= (+ (* (+ 0 it589) (exp 3 it356) (+ 0 (- 1))) (+ 0 it666))
   (+ 0 0)))
(assert (= (+ (* it590 (- 1)) it667) 0))
(assert (= (+ it668 (* it591 (- 1))) 0))
(assert (or (and false (not bt709)) bt709))
(assert (or (and false bt710) (not bt710)))
(assert (or (and false bt711) (not bt711)))
(assert (or (and false bt712) (not bt712)))
(assert (and (not bt710)
     (not bt712)
     (= (+ (* it592 (- 1)) it666) 0)
     bt644
     (not bt711)
     (= (+ (* it593 (- 1)) it667) 0)
     (not bt641)
     (= (+ it665 (- 2)) 0)
     (not bt642)
     (= (+ it668 (* it594 (- 1))) 0)
     (<= (+ it668 (* it666 (- 1))) 0)
     bt709
     (not bt643)))
(assert (= (+ it715 (- 2)) 0))
(assert (= (+ (* it592 (- 1)) it716) 0))
(assert (= (+ (* it593 (- 1)) it717) 0))
(assert (= (+ it718 (* it594 (- 1))) 0))
(assert (or (and bt642 bt753) (and (not bt753) (not bt642))))
(assert (or (and (not bt641) (not bt754)) (and bt641 bt754)))
(assert (or (and bt643 bt755) (and (not bt755) (not bt643))))
(assert (or (and (not bt756) (not bt644)) (and bt644 bt756)))
(assert (and (= (+ (* it721 (- 1)) it718) 0)
     (= (+ (* it719 (- 1)) it716) 0)
     (= (+ it715 (- 2)) 0)
     (not bt754)
     (> it716 0)
     (not bt758)
     (= (+ (* it720 (- 1)) it717) 0)
     (not bt753)
     bt757
     (not bt759)
     bt756
     bt760))
(check-sat)
